(set-logic HORN)
(set-info :source |
    Benchmark: C_VC
    Output by Princess (http://www.philipp.ruemmer.org/princess.shtml)
|)
(set-info :status sat)
(declare-heap Heap Addr HeapObject
 defObj
 ((HeapObject 0)) (
  (
   (O_Int (getInt Int))
   (O_UInt (getUInt Int))
   (O_Addr (getAddr Addr))
   (defObj)
  )
))
(declare-fun inv_main24 (Heap Int Int Int Int AddrRange Int Int) Bool)
(declare-fun inv_main27 (Heap Int Int Int Int AddrRange Int Int) Bool)
(declare-fun inv_main28 (Heap Int Int Int Int AddrRange Int Int) Bool)
(declare-fun inv_main3 (Heap Int Int Int Int AddrRange) Bool)
(declare-fun inv_main36 (Heap Int Int Int Int AddrRange Int Int) Bool)
(declare-fun inv_main38 (Heap Int Int Int Int AddrRange Int Int) Bool)
(assert (forall ((var0 Int) (var1 AddrRange) (var2 Int) (var3 Int) (var4 Int) (var5 Heap) (var6 Int) (var7 Heap)) (or (not (and (and (and (and (and (= var7 emptyHeap) (= var6 1000)) (= var5 (newBatchHeap (batchAlloc emptyHeap (O_Int var4) var6)))) (= var3 0)) (= var2 0)) (= var1 (newAddrRange (batchAlloc emptyHeap (O_Int var4) var6))))) (inv_main3 var5 var6 var0 var3 var2 var1))))
(assert (forall ((var0 Int) (var1 Int) (var2 Int) (var3 AddrRange) (var4 Int) (var5 Int) (var6 Int) (var7 Int) (var8 Heap)) (or (not (and (inv_main38 var8 var7 var6 var5 var4 var3 var2 var1) (and (<= 0 (+ (+ var7 (* (- 1) (+ var6 1))) (- 1))) (= var0 (+ var6 1))))) (inv_main36 var8 var7 var0 var5 var4 var3 var2 var1))))
(assert (forall ((var0 Int) (var1 Int) (var2 Int) (var3 Int) (var4 AddrRange) (var5 Int) (var6 Int) (var7 Heap) (var8 Int) (var9 Int) (var10 Int) (var11 Int) (var12 Int) (var13 AddrRange) (var14 Int) (var15 Int) (var16 Int) (var17 Int) (var18 Heap)) (or (not (and (inv_main27 var18 var17 var16 var15 var14 var13 var12 var11) (and (and (and (<= 0 (+ var10 (- 1))) (and (not (<= 0 (+ (+ var10 (* (- 1) (+ var9 1))) (- 1)))) (and (and (= var8 0) (is-O_Int (read var18 (nthAddrRange var13 var16)))) (and (and (and (and (and (and (and (and (= var7 var18) (= var10 var17)) (= var9 var16)) (= var6 var15)) (= var5 var14)) (= var4 var13)) (= var3 var12)) (= var2 var11)) (= var8 (getInt (read var18 (nthAddrRange var13 var16)))))))) (= var1 0)) (= var0 (+ var5 1))))) (inv_main36 var7 var10 var1 var6 var0 var4 var3 var2))))
(assert (forall ((var0 Int) (var1 Int) (var2 Int) (var3 AddrRange) (var4 Int) (var5 Int) (var6 Heap) (var7 Int) (var8 Int) (var9 Int) (var10 Int) (var11 Int) (var12 AddrRange) (var13 Int) (var14 Int) (var15 Int) (var16 Int) (var17 Heap)) (or (not (and (inv_main27 var17 var16 var15 var14 var13 var12 var11 var10) (and (and (<= 0 (+ var9 (- 1))) (and (not (<= 0 (+ (+ var9 (* (- 1) (+ var8 1))) (- 1)))) (and (and (not (= var7 0)) (is-O_Int (read var17 (nthAddrRange var12 var15)))) (and (and (and (and (and (and (and (and (= var6 var17) (= var9 var16)) (= var8 var15)) (= var5 var14)) (= var4 var13)) (= var3 var12)) (= var2 var11)) (= var1 var10)) (= var7 (getInt (read var17 (nthAddrRange var12 var15)))))))) (= var0 0)))) (inv_main36 var6 var9 var0 var5 var4 var3 var2 var1))))
(assert (forall ((var0 Int) (var1 Int) (var2 Int) (var3 Int) (var4 Int) (var5 Int) (var6 Int) (var7 AddrRange) (var8 AddrRange) (var9 Int) (var10 Int) (var11 Int) (var12 Int) (var13 Int) (var14 Int) (var15 Int) (var16 Heap) (var17 Heap) (var18 Int) (var19 Int) (var20 Int) (var21 AddrRange) (var22 Int) (var23 Int) (var24 Int) (var25 Int) (var26 Heap) (var27 Int) (var28 Int) (var29 Int) (var30 Int) (var31 Int) (var32 Int) (var33 Int) (var34 Int)) (or (not (and (inv_main3 var26 var25 var24 var23 var22 var21) (and (and (<= 0 (+ var20 (- 1))) (and (not (<= 0 (+ var20 (- 1)))) (and (and (and (not (= var19 0)) (<= 0 (+ var18 (- 1)))) (and (and (and (and (and (and (and (and (= var17 var16) (= var20 var15)) (= var14 var13)) (= var12 var11)) (= var10 var9)) (= var8 var7)) (= var6 var18)) (= var5 var4)) (or (and (and (and (and (and (and (and (and (= var30 var15) (= var29 (+ var30 (* (- 1) (* var27 var28))))) (= var28 var4)) (or (and (<= 0 var28) (<= 0 (+ (+ var28 (* (- 1) var29)) (- 1)))) (and (not (<= 0 var28)) (<= 0 (+ (+ (* (- 1) var28) (* (- 1) var29)) (- 1)))))) (or (and (<= 0 var28) (<= 0 (+ (+ var28 (* 1 var29)) (- 1)))) (and (not (<= 0 var28)) (<= 0 (+ (+ (* (- 1) var28) (* 1 var29)) (- 1)))))) (or (not (<= 0 (+ var29 (- 1)))) (<= 0 (+ var30 (- 1))))) (or (not (<= 0 (+ (* (- 1) var29) (- 1)))) (<= 0 (+ (* (- 1) var30) (- 1))))) (<= 0 (+ (+ var27 (* (- 1) var18)) (- 1)))) (= var19 1)) (and (not (or (not (and (and (and (and (and (and (= var34 var15) (= var33 (+ var34 (* (- 1) (* var31 var32))))) (= var32 var4)) (or (and (<= 0 var32) (<= 0 (+ (+ var32 (* (- 1) var33)) (- 1)))) (and (not (<= 0 var32)) (<= 0 (+ (+ (* (- 1) var32) (* (- 1) var33)) (- 1)))))) (or (and (<= 0 var32) (<= 0 (+ (+ var32 (* 1 var33)) (- 1)))) (and (not (<= 0 var32)) (<= 0 (+ (+ (* (- 1) var32) (* 1 var33)) (- 1)))))) (or (not (<= 0 (+ var33 (- 1)))) (<= 0 (+ var34 (- 1))))) (or (not (<= 0 (+ (* (- 1) var33) (- 1)))) (<= 0 (+ (* (- 1) var34) (- 1)))))) (<= 0 (+ (+ var31 (* (- 1) var18)) (- 1))))) (= var19 0))))) (and (and (not (= var3 0)) (and (and (and (and (and (and (and (and (= var16 var26) (= var15 var25)) (= var13 var24)) (= var11 var23)) (= var9 var22)) (= var7 var21)) (= var18 var2)) (= var4 var1)) (or (and (and (<= 0 (+ (+ var1 (- 1)) (- 1))) (<= 0 (+ (+ 6 (* (- 1) var1)) (- 1)))) (= var3 1)) (and (not (and (<= 0 (+ (+ var1 (- 1)) (- 1))) (<= 0 (+ (+ 6 (* (- 1) var1)) (- 1))))) (= var3 0))))) (<= 0 var1))))) (= var0 0)))) (inv_main36 var17 var20 var0 var12 var10 var8 var6 var5))))
(assert (forall ((var0 Int) (var1 Int) (var2 Int) (var3 AddrRange) (var4 Int) (var5 Int) (var6 Int) (var7 Int) (var8 Heap) (var9 Int) (var10 Int) (var11 Int) (var12 AddrRange) (var13 Int) (var14 Int) (var15 Int) (var16 Int) (var17 Heap)) (or (not (and (inv_main36 var17 var16 var15 var14 var13 var12 var11 var10) (and (and (and (= var9 0) (is-O_Int (read var17 (nthAddrRange var12 var15)))) (and (and (and (and (and (and (and (and (= var8 var17) (= var7 var16)) (= var6 var15)) (= var5 var14)) (= var4 var13)) (= var3 var12)) (= var2 var11)) (= var1 var10)) (= var9 (getInt (read var17 (nthAddrRange var12 var15)))))) (= var0 (+ var5 1))))) (inv_main38 var8 var7 var6 var0 var4 var3 var2 var1))))
(assert (forall ((var0 Int) (var1 Int) (var2 AddrRange) (var3 Int) (var4 Int) (var5 Int) (var6 Int) (var7 Heap) (var8 Int) (var9 Int) (var10 Int) (var11 AddrRange) (var12 Int) (var13 Int) (var14 Int) (var15 Int) (var16 Heap)) (or (not (and (inv_main36 var16 var15 var14 var13 var12 var11 var10 var9) (and (and (not (= var8 0)) (is-O_Int (read var16 (nthAddrRange var11 var14)))) (and (and (and (and (and (and (and (and (= var7 var16) (= var6 var15)) (= var5 var14)) (= var4 var13)) (= var3 var12)) (= var2 var11)) (= var1 var10)) (= var0 var9)) (= var8 (getInt (read var16 (nthAddrRange var11 var14)))))))) (inv_main38 var7 var6 var5 var4 var3 var2 var1 var0))))
(assert (forall ((var0 Int) (var1 Int) (var2 Int) (var3 Int) (var4 AddrRange) (var5 Int) (var6 Int) (var7 Heap) (var8 Int) (var9 Int) (var10 Int) (var11 Int) (var12 Int) (var13 AddrRange) (var14 Int) (var15 Int) (var16 Int) (var17 Int) (var18 Heap)) (or (not (and (inv_main27 var18 var17 var16 var15 var14 var13 var12 var11) (and (and (and (<= 0 (+ (+ var10 (* (- 1) (+ var9 1))) (- 1))) (and (and (= var8 0) (is-O_Int (read var18 (nthAddrRange var13 var16)))) (and (and (and (and (and (and (and (and (= var7 var18) (= var10 var17)) (= var9 var16)) (= var6 var15)) (= var5 var14)) (= var4 var13)) (= var3 var12)) (= var2 var11)) (= var8 (getInt (read var18 (nthAddrRange var13 var16))))))) (= var1 (+ var9 1))) (= var0 (+ var5 1))))) (inv_main24 var7 var10 var1 var6 var0 var4 var3 var2))))
(assert (forall ((var0 Int) (var1 Int) (var2 Int) (var3 AddrRange) (var4 Int) (var5 Int) (var6 Heap) (var7 Int) (var8 Int) (var9 Int) (var10 Int) (var11 Int) (var12 AddrRange) (var13 Int) (var14 Int) (var15 Int) (var16 Int) (var17 Heap)) (or (not (and (inv_main27 var17 var16 var15 var14 var13 var12 var11 var10) (and (and (<= 0 (+ (+ var9 (* (- 1) (+ var8 1))) (- 1))) (and (and (not (= var7 0)) (is-O_Int (read var17 (nthAddrRange var12 var15)))) (and (and (and (and (and (and (and (and (= var6 var17) (= var9 var16)) (= var8 var15)) (= var5 var14)) (= var4 var13)) (= var3 var12)) (= var2 var11)) (= var1 var10)) (= var7 (getInt (read var17 (nthAddrRange var12 var15))))))) (= var0 (+ var8 1))))) (inv_main24 var6 var9 var0 var5 var4 var3 var2 var1))))
(assert (forall ((var0 Int) (var1 Int) (var2 Int) (var3 Int) (var4 Int) (var5 Int) (var6 Int) (var7 AddrRange) (var8 AddrRange) (var9 Int) (var10 Int) (var11 Int) (var12 Int) (var13 Int) (var14 Int) (var15 Int) (var16 Heap) (var17 Heap) (var18 Int) (var19 Int) (var20 Int) (var21 AddrRange) (var22 Int) (var23 Int) (var24 Int) (var25 Int) (var26 Heap) (var27 Int) (var28 Int) (var29 Int) (var30 Int) (var31 Int) (var32 Int) (var33 Int) (var34 Int)) (or (not (and (inv_main3 var26 var25 var24 var23 var22 var21) (and (and (<= 0 (+ var20 (- 1))) (and (and (and (not (= var19 0)) (<= 0 (+ var18 (- 1)))) (and (and (and (and (and (and (and (and (= var17 var16) (= var20 var15)) (= var14 var13)) (= var12 var11)) (= var10 var9)) (= var8 var7)) (= var6 var18)) (= var5 var4)) (or (and (and (and (and (and (and (and (and (= var30 var15) (= var29 (+ var30 (* (- 1) (* var27 var28))))) (= var28 var4)) (or (and (<= 0 var28) (<= 0 (+ (+ var28 (* (- 1) var29)) (- 1)))) (and (not (<= 0 var28)) (<= 0 (+ (+ (* (- 1) var28) (* (- 1) var29)) (- 1)))))) (or (and (<= 0 var28) (<= 0 (+ (+ var28 (* 1 var29)) (- 1)))) (and (not (<= 0 var28)) (<= 0 (+ (+ (* (- 1) var28) (* 1 var29)) (- 1)))))) (or (not (<= 0 (+ var29 (- 1)))) (<= 0 (+ var30 (- 1))))) (or (not (<= 0 (+ (* (- 1) var29) (- 1)))) (<= 0 (+ (* (- 1) var30) (- 1))))) (<= 0 (+ (+ var27 (* (- 1) var18)) (- 1)))) (= var19 1)) (and (not (or (not (and (and (and (and (and (and (= var34 var15) (= var33 (+ var34 (* (- 1) (* var31 var32))))) (= var32 var4)) (or (and (<= 0 var32) (<= 0 (+ (+ var32 (* (- 1) var33)) (- 1)))) (and (not (<= 0 var32)) (<= 0 (+ (+ (* (- 1) var32) (* (- 1) var33)) (- 1)))))) (or (and (<= 0 var32) (<= 0 (+ (+ var32 (* 1 var33)) (- 1)))) (and (not (<= 0 var32)) (<= 0 (+ (+ (* (- 1) var32) (* 1 var33)) (- 1)))))) (or (not (<= 0 (+ var33 (- 1)))) (<= 0 (+ var34 (- 1))))) (or (not (<= 0 (+ (* (- 1) var33) (- 1)))) (<= 0 (+ (* (- 1) var34) (- 1)))))) (<= 0 (+ (+ var31 (* (- 1) var18)) (- 1))))) (= var19 0))))) (and (and (not (= var3 0)) (and (and (and (and (and (and (and (and (= var16 var26) (= var15 var25)) (= var13 var24)) (= var11 var23)) (= var9 var22)) (= var7 var21)) (= var18 var2)) (= var4 var1)) (or (and (and (<= 0 (+ (+ var1 (- 1)) (- 1))) (<= 0 (+ (+ 6 (* (- 1) var1)) (- 1)))) (= var3 1)) (and (not (and (<= 0 (+ (+ var1 (- 1)) (- 1))) (<= 0 (+ (+ 6 (* (- 1) var1)) (- 1))))) (= var3 0))))) (<= 0 var1)))) (= var0 0)))) (inv_main24 var17 var20 var0 var12 var10 var8 var6 var5))))
(assert (forall ((var0 AddrRange) (var1 Int) (var2 Heap) (var3 Int) (var4 Int) (var5 Int) (var6 Int) (var7 Int) (var8 Int) (var9 Int) (var10 AddrRange) (var11 Int) (var12 Int) (var13 Int) (var14 Int) (var15 Heap) (var16 Int) (var17 Int) (var18 Int) (var19 Int)) (or (not (and (inv_main24 var15 var14 var13 var12 var11 var10 var9 var8) (and (and (and (and (and (and (and (and (and (and (= var19 var6) (= var18 (+ var19 (* (- 1) (* var16 var17))))) (= var17 var5)) (or (and (<= 0 var17) (<= 0 (+ (+ var17 (* (- 1) var18)) (- 1)))) (and (not (<= 0 var17)) (<= 0 (+ (+ (* (- 1) var17) (* (- 1) var18)) (- 1)))))) (or (and (<= 0 var17) (<= 0 (+ (+ var17 (* 1 var18)) (- 1)))) (and (not (<= 0 var17)) (<= 0 (+ (+ (* (- 1) var17) (* 1 var18)) (- 1)))))) (or (not (<= 0 (+ var18 (- 1)))) (<= 0 (+ var19 (- 1))))) (or (not (<= 0 (+ (* (- 1) var18) (- 1)))) (<= 0 (+ (* (- 1) var19) (- 1))))) (<= 0 (+ (+ var7 (* (- 1) var16)) (- 1)))) (<= 0 (+ (+ var4 (* (- 1) var3)) (- 1)))) (and (is-O_Int (read var15 (nthAddrRange var10 var13))) (is-O_Int (read var15 (nthAddrRange var10 var13))))) (and (and (and (and (and (and (and (= var2 (write var15 (nthAddrRange var10 var13) (O_Int (+ var13 1)))) (= var6 var14)) (= var7 var13)) (= var1 var12)) (= var3 var11)) (= var0 var10)) (= var4 var9)) (= var5 var8))))) (inv_main28 var2 var6 var7 var1 var3 var0 var4 var5))))
(assert (forall ((var0 Heap) (var1 Int) (var2 Int) (var3 AddrRange) (var4 Int) (var5 Int) (var6 Int) (var7 Int) (var8 Heap) (var9 Int) (var10 Int)) (or (not (and (inv_main28 var8 var7 var6 var5 var4 var3 var2 var1) (and (and (is-O_Int (read var8 (nthAddrRange var3 var6))) (is-O_Int (read var8 (nthAddrRange var3 var6)))) (and (and (and (and (and (or (and (<= 0 var1) (<= 0 (+ (+ var1 (* (- 1) var9)) (- 1)))) (and (not (<= 0 var1)) (<= 0 (+ (+ (* (- 1) var1) (* (- 1) var9)) (- 1))))) (or (and (<= 0 var1) (<= 0 (+ (+ var1 (* 1 var9)) (- 1)))) (and (not (<= 0 var1)) (<= 0 (+ (+ (* (- 1) var1) (* 1 var9)) (- 1)))))) (or (not (<= 0 (+ var9 (- 1)))) (<= 0 (+ var6 (- 1))))) (or (not (<= 0 (+ (* (- 1) var9) (- 1)))) (<= 0 (+ (* (- 1) var6) (- 1))))) (= var6 (+ (* var10 var1) var9))) (= var0 (write var8 (nthAddrRange var3 var6) (O_Int var9))))))) (inv_main27 var0 var7 var6 var5 var4 var3 var2 var1))))
(assert (forall ((var0 AddrRange) (var1 Int) (var2 Heap) (var3 Int) (var4 Int) (var5 Int) (var6 Int) (var7 Int) (var8 Int) (var9 Int) (var10 AddrRange) (var11 Int) (var12 Int) (var13 Int) (var14 Int) (var15 Heap) (var16 Int) (var17 Int) (var18 Int) (var19 Int)) (or (not (and (inv_main24 var15 var14 var13 var12 var11 var10 var9 var8) (and (and (or (not (or (not (and (and (and (and (and (and (= var19 var6) (= var18 (+ var19 (* (- 1) (* var16 var17))))) (= var17 var5)) (or (and (<= 0 var17) (<= 0 (+ (+ var17 (* (- 1) var18)) (- 1)))) (and (not (<= 0 var17)) (<= 0 (+ (+ (* (- 1) var17) (* (- 1) var18)) (- 1)))))) (or (and (<= 0 var17) (<= 0 (+ (+ var17 (* 1 var18)) (- 1)))) (and (not (<= 0 var17)) (<= 0 (+ (+ (* (- 1) var17) (* 1 var18)) (- 1)))))) (or (not (<= 0 (+ var18 (- 1)))) (<= 0 (+ var19 (- 1))))) (or (not (<= 0 (+ (* (- 1) var18) (- 1)))) (<= 0 (+ (* (- 1) var19) (- 1)))))) (<= 0 (+ (+ var7 (* (- 1) var16)) (- 1))))) (not (<= 0 (+ (+ var4 (* (- 1) var3)) (- 1))))) (and (is-O_Int (read var15 (nthAddrRange var10 var13))) (is-O_Int (read var15 (nthAddrRange var10 var13))))) (and (and (and (and (and (and (and (= var2 (write var15 (nthAddrRange var10 var13) (O_Int (+ var13 1)))) (= var6 var14)) (= var7 var13)) (= var1 var12)) (= var3 var11)) (= var0 var10)) (= var4 var9)) (= var5 var8))))) (inv_main27 var2 var6 var7 var1 var3 var0 var4 var5))))
(assert (forall ((var0 Int) (var1 Int) (var2 AddrRange) (var3 Int) (var4 Int) (var5 Int) (var6 Int) (var7 Heap)) (not (and (inv_main24 var7 var6 var5 var4 var3 var2 var1 var0) (not (is-O_Int (read var7 (nthAddrRange var2 var5))))))))
(assert (forall ((var0 Int) (var1 Int) (var2 AddrRange) (var3 Int) (var4 Int) (var5 Int) (var6 Int) (var7 Heap)) (not (and (inv_main24 var7 var6 var5 var4 var3 var2 var1 var0) (and (is-O_Int (read var7 (nthAddrRange var2 var5))) (not (within var2 (nthAddrRange var2 var5))))))))
(assert (forall ((var0 Int) (var1 Int) (var2 AddrRange) (var3 Int) (var4 Int) (var5 Int) (var6 Int) (var7 Heap)) (not (and (inv_main24 var7 var6 var5 var4 var3 var2 var1 var0) (and (is-O_Int (read var7 (nthAddrRange var2 var5))) (not (is-O_Int (read var7 (nthAddrRange var2 var5)))))))))
(assert (forall ((var0 Int) (var1 Int) (var2 AddrRange) (var3 Int) (var4 Int) (var5 Int) (var6 Int) (var7 Heap)) (not (and (inv_main28 var7 var6 var5 var4 var3 var2 var1 var0) (not (is-O_Int (read var7 (nthAddrRange var2 var5))))))))
(assert (forall ((var0 Int) (var1 Int) (var2 AddrRange) (var3 Int) (var4 Int) (var5 Int) (var6 Int) (var7 Heap)) (not (and (inv_main28 var7 var6 var5 var4 var3 var2 var1 var0) (and (is-O_Int (read var7 (nthAddrRange var2 var5))) (not (within var2 (nthAddrRange var2 var5))))))))
(assert (forall ((var0 Int) (var1 Int) (var2 AddrRange) (var3 Int) (var4 Int) (var5 Int) (var6 Int) (var7 Heap)) (not (and (inv_main28 var7 var6 var5 var4 var3 var2 var1 var0) (and (is-O_Int (read var7 (nthAddrRange var2 var5))) (not (is-O_Int (read var7 (nthAddrRange var2 var5)))))))))
(assert (forall ((var0 Int) (var1 Int) (var2 AddrRange) (var3 Int) (var4 Int) (var5 Int) (var6 Int) (var7 Heap)) (not (and (inv_main27 var7 var6 var5 var4 var3 var2 var1 var0) (not (is-O_Int (read var7 (nthAddrRange var2 var5))))))))
(assert (forall ((var0 Int) (var1 Int) (var2 AddrRange) (var3 Int) (var4 Int) (var5 Int) (var6 Int) (var7 Heap)) (not (and (inv_main27 var7 var6 var5 var4 var3 var2 var1 var0) (and (is-O_Int (read var7 (nthAddrRange var2 var5))) (not (within var2 (nthAddrRange var2 var5))))))))
(assert (forall ((var0 Int) (var1 Int) (var2 AddrRange) (var3 Int) (var4 Int) (var5 Int) (var6 Int) (var7 Heap)) (not (and (inv_main36 var7 var6 var5 var4 var3 var2 var1 var0) (not (is-O_Int (read var7 (nthAddrRange var2 var5))))))))
(assert (forall ((var0 Int) (var1 Int) (var2 AddrRange) (var3 Int) (var4 Int) (var5 Int) (var6 Int) (var7 Heap)) (not (and (inv_main36 var7 var6 var5 var4 var3 var2 var1 var0) (and (is-O_Int (read var7 (nthAddrRange var2 var5))) (not (within var2 (nthAddrRange var2 var5))))))))
(assert (forall ((var0 Int) (var1 Int) (var2 AddrRange) (var3 Int) (var4 Int) (var5 Int) (var6 Int) (var7 Heap) (var8 Int) (var9 Int) (var10 Int) (var11 Int)) (not (and (inv_main38 var7 var6 var5 var4 var3 var2 var1 var0) (not (or (not (and (and (and (and (and (and (= var11 (* var6 (+ var0 (- 1)))) (= var10 (+ var11 (* (- 1) (* var8 var9))))) (= var9 (* var0 var0))) (or (and (<= 0 var9) (<= 0 (+ (+ var9 (* (- 1) var10)) (- 1)))) (and (not (<= 0 var9)) (<= 0 (+ (+ (* (- 1) var9) (* (- 1) var10)) (- 1)))))) (or (and (<= 0 var9) (<= 0 (+ (+ var9 (* 1 var10)) (- 1)))) (and (not (<= 0 var9)) (<= 0 (+ (+ (* (- 1) var9) (* 1 var10)) (- 1)))))) (or (not (<= 0 (+ var10 (- 1)))) (<= 0 (+ var11 (- 1))))) (or (not (<= 0 (+ (* (- 1) var10) (- 1)))) (<= 0 (+ (* (- 1) var11) (- 1)))))) (<= 0 (+ var8 (* (- 1) var4)))))))))
(check-sat)
